21
Hexan-1-ol
O    0.000000   0.000000   0.000000
H    0.000000   0.000000   0.962000
C    1.430000   0.000000   0.000000
H    1.790000   1.026000   0.000000
H    1.790000  -0.513000   0.889000
C    1.943000  -0.513000  -1.334000
H    1.583000   0.051000  -2.200000
H    1.583000  -1.540000  -1.334000
C    3.463000  -0.513000  -1.334000
H    3.823000   0.051000  -0.468000
H    3.823000  -1.540000  -1.334000
C    3.976000  -0.000000  -2.668000
H    3.616000   1.027000  -2.668000
H    3.616000  -0.513000  -3.534000
C    5.496000  -0.000000  -2.668000
H    5.856000  -1.027000  -2.668000
H    5.856000   0.513000  -1.802000
C    6.009000   0.513000  -4.002000
H    5.649000   1.540000  -4.002000
H    5.649000   0.000000  -4.868000
H    7.099000   0.513000  -4.002000