27
C12H14O; C4-C5=1.8782380751 Angstrom; factor=1.4; rigid stretch from supplied Avogadro geometry; not reoptimized
O  -1.1437371594  0.5726639533 -0.0000000000
C  -0.0638251390 -0.0046545344 -0.0000000000
H   0.0143012565 -1.1043806253  0.0000000000
C   1.2062484180  0.7460998723  0.0000000000
H   1.1216193228  1.8263680519  0.0000000000
C   2.3753021615  0.0924577653 -0.0000000000
H   2.4008361554 -0.9955760952  0.0000000000
C   3.6477529844  0.7805951424 -0.0000000000
H   3.6247927386  1.8693613987 -0.0000000000
C   5.2957601861 -0.1204323433  0.0000000000
H   5.3262045679 -1.2082674880  0.0000000000
C   6.5655364905  0.5730284914  0.0000000000
H   6.5370499272  1.6610983604  0.0000000000
C   7.7455367504 -0.0652788115  0.0000000000
H   7.7789899073 -1.1529286978  0.0000000000
C   9.0125338071  0.6331662584  0.0000000000
H   8.9795415954  1.7209334020  0.0000000000
C   10.1949618741 -0.0004433901  0.0000000000
H   10.2320951324 -1.0878734316  0.0000000000
C   11.4581911388  0.7020647905  0.0000000000
H   11.4269974683  1.7899804945  0.0000000000
C   12.6422991003  0.0721055743  0.0000000000
H   12.6860477663 -1.0147142772  0.0000000000
C   13.9587310407  0.7794622586  0.0000000000
H   13.8447676363  1.8681054337  0.0000000000
H   14.5333942404  0.4966014029  0.8872096928
H   14.5333942404  0.4966014029 -0.8872096928
