27
C12H14O; C4-C5=1.6099183501 Angstrom; factor=1.2; rigid stretch from supplied Avogadro geometry; not reoptimized
O  -1.1437371594  0.5726639533 -0.0000000000
C  -0.0638251390 -0.0046545344 -0.0000000000
H   0.0143012565 -1.1043806253  0.0000000000
C   1.2062484180  0.7460998723  0.0000000000
H   1.1216193228  1.8263680519  0.0000000000
C   2.3753021615  0.0924577653 -0.0000000000
H   2.4008361554 -0.9955760952  0.0000000000
C   3.6477529844  0.7805951424 -0.0000000000
H   3.6247927386  1.8693613987 -0.0000000000
C   5.0603305858  0.0082858690  0.0000000000
H   5.0907749676 -1.0795492757  0.0000000000
C   6.3301068902  0.7017467037  0.0000000000
H   6.3016203269  1.7898165727  0.0000000000
C   7.5101071501  0.0634394008  0.0000000000
H   7.5435603070 -1.0242104855  0.0000000000
C   8.7771042068  0.7618844707  0.0000000000
H   8.7441119951  1.8496516143  0.0000000000
C   9.9595322738  0.1282748222  0.0000000000
H   9.9966655321 -0.9591552193  0.0000000000
C   11.2227615385  0.8307830028  0.0000000000
H   11.1915678680  1.9186987068  0.0000000000
C   12.4068695000  0.2008237866  0.0000000000
H   12.4506181660 -0.8859960649  0.0000000000
C   13.7233014404  0.9081804709  0.0000000000
H   13.6093380360  1.9968236460  0.0000000000
H   14.2979646401  0.6253196152  0.8872096928
H   14.2979646401  0.6253196152 -0.8872096928
