27
C12H14O; all-E OHC-(CH=CH)5-CH3; Angstrom, optimized by avogrado2.0
O     -1.1437371594    0.5726639533   -0.0000000000
C     -0.0638251390   -0.0046545344   -0.0000000000
H      0.0143012565   -1.1043806253    0.0000000000
C      1.2062484180    0.7460998723    0.0000000000
H      1.1216193228    1.8263680519    0.0000000000
C      2.3753021615    0.0924577653   -0.0000000000
H      2.4008361554   -0.9955760952    0.0000000000
C      3.6477529844    0.7805951424   -0.0000000000
H      3.6247927386    1.8693613987   -0.0000000000
C      4.8249009856    0.1370040812   -0.0000000000
H      4.8553453674   -0.9508310635   -0.0000000000
C      6.0946772900    0.8304649159    0.0000000000
H      6.0661907267    1.9185347849    0.0000000000
C      7.2746775499    0.1921576130    0.0000000000
H      7.3081307068   -0.8954922733    0.0000000000
C      8.5416746066    0.8906026829   -0.0000000000
H      8.5086823949    1.9783698265   -0.0000000000
C      9.7241026736    0.2569930344   -0.0000000000
H      9.7612359319   -0.8304370071   -0.0000000000
C     10.9873319383    0.9595012150   -0.0000000000
H     10.9561382678    2.0474169190    0.0000000000
C     12.1714398998    0.3295419988    0.0000000000
H     12.2151885658   -0.7572778527    0.0000000000
C     13.4878718402    1.0368986831   -0.0000000000
H     13.3739084358    2.1255418582    0.0000000000
H     14.0625350399    0.7540378274    0.8872096928
H     14.0625350399    0.7540378274   -0.8872096928
